w = 32;
n = 27;
measures = [|3, 27,
|3, 25,
|3, 24,
|4, 18,
|3, 23,
|3, 22,
|3, 18,
|3, 15,
|4, 11,
|3, 14,
|4, 10,
|3, 13,
|3, 12,
|3, 11,
|3, 10,
|4, 7,
|3, 9,
|3, 8,
|4, 6,
|3, 7,
|4, 5,
|3, 6,
|4, 4,
|3, 5,
|3, 4,
|4, 3,
|3, 3,
|];
initial_x = [0, 3, 6, 9, 13, 16, 19, 22, 25, 29, 0, 4, 7, 10, 13, 16, 20, 23, 26, 0, 3, 7, 10, 14, 17, 20, 24];
initial_y = [0, 0, 0, 0, 0, 0, 0, 0, 0, 0, 27, 27, 27, 27, 27, 27, 27, 27, 27, 40, 40, 40, 40, 40, 40, 40, 40];